networks/rf_208_6428/rf_208_6428-lower.txt
Number of groups: 136
Flow 50: {3 79 0} 
Flow 265: {3 80 0} 
Flow 280: {4 6 0} {6 96 0} {96 200 0} 
Flow 323: {8 9 0} {9 60 0} 
Flow 429: {9 61 0} {61 11 0} {11 65 0} {65 169 0} 
Flow 477: {10 11 0} {11 60 0} {60 13 0} {13 117 0} 
Flow 658: {12 13 0} {13 60 0} {60 11 0} {11 10 0} {10 114 0} 
Flow 705: {13 61 0} {61 71 0} {71 175 0} 
Flow 807: {14 15 0} {15 99 0} {99 101 0} 
Flow 819: {15 14 0} {14 118 0} 
Flow 918: {16 17 0} {17 66 0} {66 170 0} 
Flow 976: {18 6 0} {6 26 0} {26 130 0} 
Flow 1016: {19 3 0} 
Flow 1086: {20 21 0} {21 94 0} {94 198 0} 
Flow 1123: {22 21 0} {21 55 0} {55 159 0} 
Flow 1173: {23 17 0} {17 42 0} 
Flow 1227: {24 25 0} {25 51 0} {51 34 0} {34 30 0} {30 134 0} 
Flow 1297: {34 35 0} {35 57 0} 
Flow 1397: {26 6 0} {6 99 0} {99 72 0} {72 176 0} 
Flow 1446: {27 21 0} {21 25 0} {25 24 0} {24 128 0} 
Flow 1534: {28 21 0} {21 20 0} {20 124 0} 
Flow 1667: {29 34 0} {34 51 0} {51 73 0} 
Flow 1716: {30 29 0} {29 32 0} {32 136 0} 
Flow 1718: {30 34 0} {34 138 0} 
Flow 1745: {75 76 0} {76 180 0} 
Flow 1791: {32 34 0} {34 31 0} {31 135 0} 
Flow 1801: {32 29 0} {29 33 0} {33 42 0} 
Flow 1980: {57 17 0} {17 102 0} {102 206 0} 
Flow 1986: {36 6 0} {6 110 0} 
Flow 2127: {38 6 0} {6 68 0} {68 172 0} 
Flow 2155: {4 7 0} {7 97 0} {97 201 0} 
Flow 2187: {39 33 0} {33 137 0} 
Flow 2195: {39 42 0} {42 146 0} 
Flow 2198: {39 45 0} 
Flow 2212: {39 17 0} {17 63 0} {63 167 0} 
Flow 2272: {40 45 0} 
Flow 2285: {40 42 0} 
Flow 2287: {40 39 0} {39 44 0} 
Flow 2323: {40 33 0} {33 85 0} {85 189 0} 
Flow 2348: {60 9 0} {9 113 0} 
Flow 2368: {41 33 0} {33 29 0} {29 35 0} {35 139 0} 
Flow 2373: {41 39 0} {39 40 0} 
Flow 2374: {41 42 0} 
Flow 2394: {41 45 0} {45 74 0} {74 99 0} {99 6 0} {6 67 0} {67 171 0} 
Flow 2398: {60 71 0} 
Flow 2440: {42 17 0} {17 16 0} {16 120 0} 
Flow 2452: {42 39 0} 
Flow 2453: {42 40 0} 
Flow 2454: {42 43 0} {43 147 0} 
Flow 2455: {42 44 0} 
Flow 2456: {42 45 0} {45 149 0} 
Flow 2469: {42 33 0} {33 74 0} {74 178 0} 
Flow 2573: {43 33 0} {33 45 0} 
Flow 2610: {44 42 0} 
Flow 2616: {44 45 0} {45 51 0} {51 25 0} {25 50 0} {50 154 0} 
Flow 2631: {44 39 0} {39 43 0} {43 69 0} {69 173 0} 
Flow 2648: {99 61 0} {61 7 0} {7 86 0} {86 190 0} 
Flow 2659: {44 33 0} {33 72 0} {72 100 0} {100 204 0} 
Flow 2666: {6 4 0} {4 108 0} 
Flow 2702: {46 6 0} {6 48 0} {48 152 0} 
Flow 2768: {47 6 0} {6 18 0} {18 122 0} 
Flow 2871: {48 6 0} {6 38 0} {38 142 0} 
Flow 2990: {49 50 0} 
Flow 3132: {52 50 0} {50 3 0} {3 19 0} {19 123 0} 
Flow 3197: {52 49 0} 
Flow 3271: {53 50 0} {50 75 0} {75 179 0} 
Flow 3274: {2 78 0} {78 182 0} 
Flow 3288: {53 49 0} {49 51 0} {51 21 0} {21 93 0} {93 197 0} 
Flow 3302: {54 21 0} {21 27 0} {27 131 0} 
Flow 3327: {35 29 0} {29 31 0} 
Flow 3375: {17 23 0} {23 127 0} 
Flow 3508: {58 56 0} {56 43 0} {43 83 0} {83 187 0} 
Flow 3554: {59 56 0} {56 57 0} {57 35 0} {35 34 0} {34 37 0} {37 141 0} 
Flow 3630: {7 4 0} {4 5 0} {5 109 0} 
Flow 3743: {62 21 0} {21 28 0} {28 132 0} 
Flow 3826: {63 17 0} {17 121 0} 
Flow 3945: {64 21 0} {21 62 0} {62 166 0} 
Flow 3996: {67 6 0} {6 46 0} {46 150 0} 
Flow 4055: {43 39 0} {39 41 0} {41 145 0} 
Flow 4056: {69 43 0} {43 42 0} 
Flow 4069: {43 56 0} {56 58 0} {58 162 0} 
Flow 4143: {45 42 0} 
Flow 4151: {70 51 0} {51 155 0} 
Flow 4166: {70 25 0} {25 73 0} {73 177 0} 
Flow 4200: {71 61 0} {61 13 0} {13 12 0} {12 116 0} 
Flow 4220: {71 60 0} {60 72 0} {72 33 0} {33 44 0} 
Flow 4287: {29 30 0} {30 37 0} 
Flow 4307: {72 60 0} {60 61 0} {61 165 0} 
Flow 4341: {72 99 0} {99 203 0} 
Flow 4407: {73 25 0} {25 70 0} {70 174 0} 
Flow 4430: {73 51 0} {51 95 0} {95 199 0} 
Flow 4562: {76 75 0} {75 50 0} {50 49 0} {49 153 0} 
Flow 4591: {50 25 0} {25 74 0} {74 33 0} {33 43 0} 
Flow 4609: {3 78 0} {78 2 0} {2 106 0} 
Flow 4622: {77 3 0} {3 81 0} {81 185 0} 
Flow 4624: {78 3 0} {3 1 0} {1 105 0} 
Flow 4747: {79 3 0} 
Flow 4772: {79 2 0} {2 82 0} {82 186 0} 
Flow 4793: {80 3 0} {3 107 0} 
Flow 4846: {80 2 0} {2 79 0} {79 183 0} 
Flow 4904: {81 3 0} {3 50 0} {50 52 0} 
Flow 4924: {81 2 0} {2 80 0} {80 184 0} 
Flow 4981: {82 2 0} {2 49 0} {49 52 0} {52 156 0} 
Flow 4997: {82 3 0} {3 77 0} {77 181 0} 
Flow 5063: {84 21 0} {21 54 0} {54 158 0} 
Flow 5119: {85 33 0} {33 39 0} 
Flow 5148: {86 7 0} {7 111 0} 
Flow 5175: {74 45 0} {45 41 0} 
Flow 5239: {87 17 0} {17 39 0} 
Flow 5248: {2 81 0} 
Flow 5253: {51 49 0} {49 2 0} {2 1 0} 
Flow 5316: {88 21 0} {21 89 0} {89 193 0} 
Flow 5341: {89 21 0} {21 22 0} {22 126 0} 
Flow 5522: {91 21 0} {21 84 0} {84 188 0} 
Flow 5618: {92 21 0} {21 91 0} {91 195 0} 
Flow 5646: {2 19 0} 
Flow 5707: {94 21 0} {21 88 0} {88 192 0} 
Flow 5774: {95 51 0} {51 70 0} 
Flow 5791: {45 33 0} {33 17 0} {17 87 0} {87 191 0} 
Flow 5800: {99 100 0} 
Flow 5833: {96 6 0} {6 36 0} {36 140 0} 
Flow 5941: {17 57 0} {57 56 0} {56 160 0} 
Flow 5943: {97 7 0} {7 61 0} {61 60 0} {60 164 0} 
Flow 5981: {61 99 0} {99 74 0} {74 25 0} {25 21 0} {21 90 0} {90 104 0} {104 208 0} 
Flow 5988: {11 61 0} {61 9 0} {9 8 0} {8 112 0} 
Flow 5990: {98 11 0} {11 115 0} 
Flow 6158: {100 99 0} {99 15 0} {15 119 0} 
Flow 6217: {3 82 0} 
Flow 6233: {100 72 0} {72 101 0} {101 205 0} 
Flow 6250: {102 17 0} {17 33 0} {33 40 0} 
Flow 6303: {103 33 0} {33 41 0} 
Flow 6377: {34 32 0} 
Flow 6381: {45 39 0} {39 143 0} 
Flow 6382: {45 40 0} {40 144 0} 
Flow 6386: {90 21 0} {21 51 0} {51 45 0} {45 44 0} {44 148 0} 
Flow 6420: {104 90 0} {90 194 0} 
Time taken running everything: 75 seconds
