networks/rf_208_6428/rf_208_6428-lower.sol
<?xml version = "1.0" encoding="UTF-8" standalone="yes"?>
<CPLEXSolution version="1.2">
 <header
   problemName="networks/rf_208_6428/rf_208_6428-lower.lp"
   solutionName="incumbent"
   solutionIndex="-1"
   objectiveValue="136"
   solutionTypeValue="3"
   solutionTypeString="primal"
   solutionStatusValue="101"
   solutionStatusString="integer optimal solution"
   solutionMethodString="mip"
   primalFeasible="1"
   dualFeasible="1"
   MIPNodes="0"
   MIPIterations="16"
   writeLevel="3"/>
 <quality
   epInt="1.0000000000000001e-05"
   epRHS="9.9999999999999995e-07"
   maxIntInfeas="0"
   maxPrimalInfeas="0"
   maxX="1"
   maxSlack="1"/>
 <variables>
  <variable name="Y(50,3)" index="9655" value="1"/>
  <variable name="Y(265,3)" index="52010" value="1"/>
  <variable name="Y(280,96)" index="55058" value="1"/>
  <variable name="Y(323,9)" index="63442" value="1"/>
  <variable name="Y(429,65)" index="84380" value="1"/>
  <variable name="Y(477,13)" index="93784" value="1"/>
  <variable name="Y(658,10)" index="129438" value="1"/>
  <variable name="Y(705,71)" index="138758" value="1"/>
  <variable name="Y(807,99)" index="158880" value="1"/>
  <variable name="Y(819,14)" index="161159" value="1"/>
  <variable name="Y(918,66)" index="180714" value="1"/>
  <variable name="Y(976,26)" index="192100" value="1"/>
  <variable name="Y(1016,19)" index="199973" value="1"/>
  <variable name="Y(1086,94)" index="213838" value="1"/>
  <variable name="Y(1123,55)" index="221088" value="1"/>
  <variable name="Y(1173,17)" index="230900" value="1"/>
  <variable name="Y(1227,30)" index="241551" value="1"/>
  <variable name="Y(1297,35)" index="255346" value="1"/>
  <variable name="Y(1397,72)" index="275083" value="1"/>
  <variable name="Y(1446,24)" index="284688" value="1"/>
  <variable name="Y(1534,20)" index="302020" value="1"/>
  <variable name="Y(1667,51)" index="328252" value="1"/>
  <variable name="Y(1716,32)" index="337886" value="1"/>
  <variable name="Y(1718,34)" index="338282" value="1"/>
  <variable name="Y(1745,76)" index="343643" value="1"/>
  <variable name="Y(1791,31)" index="352660" value="1"/>
  <variable name="Y(1801,33)" index="354632" value="1"/>
  <variable name="Y(1980,102)" index="389964" value="1"/>
  <variable name="Y(1986,6)" index="391050" value="1"/>
  <variable name="Y(2127,68)" index="418889" value="1"/>
  <variable name="Y(2155,97)" index="424434" value="1"/>
  <variable name="Y(2187,33)" index="430674" value="1"/>
  <variable name="Y(2195,42)" index="432259" value="1"/>
  <variable name="Y(2198,39)" index="432847" value="1"/>
  <variable name="Y(2212,63)" index="435629" value="1"/>
  <variable name="Y(2272,40)" index="447426" value="1"/>
  <variable name="Y(2285,40)" index="449987" value="1"/>
  <variable name="Y(2287,39)" index="450380" value="1"/>
  <variable name="Y(2323,85)" index="457518" value="1"/>
  <variable name="Y(2348,9)" index="462367" value="1"/>
  <variable name="Y(2368,35)" index="466333" value="1"/>
  <variable name="Y(2373,39)" index="467322" value="1"/>
  <variable name="Y(2374,41)" index="467521" value="1"/>
  <variable name="Y(2394,67)" index="471487" value="1"/>
  <variable name="Y(2398,60)" index="472268" value="1"/>
  <variable name="Y(2440,16)" index="480498" value="1"/>
  <variable name="Y(2452,42)" index="482888" value="1"/>
  <variable name="Y(2453,42)" index="483085" value="1"/>
  <variable name="Y(2454,43)" index="483283" value="1"/>
  <variable name="Y(2455,42)" index="483479" value="1"/>
  <variable name="Y(2456,45)" index="483679" value="1"/>
  <variable name="Y(2469,74)" index="486269" value="1"/>
  <variable name="Y(2573,33)" index="506716" value="1"/>
  <variable name="Y(2610,44)" index="514016" value="1"/>
  <variable name="Y(2616,50)" index="515204" value="1"/>
  <variable name="Y(2631,69)" index="518178" value="1"/>
  <variable name="Y(2648,86)" index="521544" value="1"/>
  <variable name="Y(2659,100)" index="523725" value="1"/>
  <variable name="Y(2666,4)" index="525008" value="1"/>
  <variable name="Y(2702,48)" index="532144" value="1"/>
  <variable name="Y(2768,18)" index="545116" value="1"/>
  <variable name="Y(2871,38)" index="565427" value="1"/>
  <variable name="Y(2990,49)" index="588881" value="1"/>
  <variable name="Y(3132,19)" index="616825" value="1"/>
  <variable name="Y(3197,52)" index="629663" value="1"/>
  <variable name="Y(3271,75)" index="644264" value="1"/>
  <variable name="Y(3274,78)" index="644858" value="1"/>
  <variable name="Y(3288,93)" index="647631" value="1"/>
  <variable name="Y(3302,27)" index="650323" value="1"/>
  <variable name="Y(3327,29)" index="655250" value="1"/>
  <variable name="Y(3375,23)" index="664700" value="1"/>
  <variable name="Y(3508,83)" index="690961" value="1"/>
  <variable name="Y(3554,37)" index="699977" value="1"/>
  <variable name="Y(3630,5)" index="714917" value="1"/>
  <variable name="Y(3743,28)" index="737201" value="1"/>
  <variable name="Y(3826,17)" index="753541" value="1"/>
  <variable name="Y(3945,62)" index="777029" value="1"/>
  <variable name="Y(3996,46)" index="787060" value="1"/>
  <variable name="Y(4055,41)" index="798678" value="1"/>
  <variable name="Y(4056,43)" index="798877" value="1"/>
  <variable name="Y(4069,58)" index="801453" value="1"/>
  <variable name="Y(4143,45)" index="816018" value="1"/>
  <variable name="Y(4151,51)" index="817600" value="1"/>
  <variable name="Y(4166,73)" index="820577" value="1"/>
  <variable name="Y(4200,12)" index="827214" value="1"/>
  <variable name="Y(4220,33)" index="831175" value="1"/>
  <variable name="Y(4287,30)" index="844371" value="1"/>
  <variable name="Y(4307,61)" index="848342" value="1"/>
  <variable name="Y(4341,99)" index="855078" value="1"/>
  <variable name="Y(4407,70)" index="868051" value="1"/>
  <variable name="Y(4430,95)" index="872607" value="1"/>
  <variable name="Y(4562,49)" index="898565" value="1"/>
  <variable name="Y(4591,33)" index="904262" value="1"/>
  <variable name="Y(4609,2)" index="907777" value="1"/>
  <variable name="Y(4622,81)" index="910417" value="1"/>
  <variable name="Y(4624,1)" index="910731" value="1"/>
  <variable name="Y(4747,79)" index="935040" value="1"/>
  <variable name="Y(4772,82)" index="939968" value="1"/>
  <variable name="Y(4793,3)" index="944026" value="1"/>
  <variable name="Y(4846,79)" index="954543" value="1"/>
  <variable name="Y(4904,50)" index="965940" value="1"/>
  <variable name="Y(4924,80)" index="969910" value="1"/>
  <variable name="Y(4981,52)" index="981111" value="1"/>
  <variable name="Y(4997,77)" index="984288" value="1"/>
  <variable name="Y(5063,54)" index="997267" value="1"/>
  <variable name="Y(5119,33)" index="1008278" value="1"/>
  <variable name="Y(5148,7)" index="1013965" value="1"/>
  <variable name="Y(5175,45)" index="1019322" value="1"/>
  <variable name="Y(5239,17)" index="1031902" value="1"/>
  <variable name="Y(5248,2)" index="1033660" value="1"/>
  <variable name="Y(5253,2)" index="1034645" value="1"/>
  <variable name="Y(5316,89)" index="1047143" value="1"/>
  <variable name="Y(5341,22)" index="1052001" value="1"/>
  <variable name="Y(5522,84)" index="1087720" value="1"/>
  <variable name="Y(5618,91)" index="1106639" value="1"/>
  <variable name="Y(5646,2)" index="1112066" value="1"/>
  <variable name="Y(5707,88)" index="1124169" value="1"/>
  <variable name="Y(5774,51)" index="1137331" value="1"/>
  <variable name="Y(5791,87)" index="1140716" value="1"/>
  <variable name="Y(5800,99)" index="1142501" value="1"/>
  <variable name="Y(5833,36)" index="1148939" value="1"/>
  <variable name="Y(5941,56)" index="1170235" value="1"/>
  <variable name="Y(5943,60)" index="1170633" value="1"/>
  <variable name="Y(5981,104)" index="1178163" value="1"/>
  <variable name="Y(5988,8)" index="1179446" value="1"/>
  <variable name="Y(5990,11)" index="1179843" value="1"/>
  <variable name="Y(6158,15)" index="1212943" value="1"/>
  <variable name="Y(6217,3)" index="1224554" value="1"/>
  <variable name="Y(6233,101)" index="1227804" value="1"/>
  <variable name="Y(6250,33)" index="1231085" value="1"/>
  <variable name="Y(6303,33)" index="1241526" value="1"/>
  <variable name="Y(6377,34)" index="1256105" value="1"/>
  <variable name="Y(6381,39)" index="1256898" value="1"/>
  <variable name="Y(6382,40)" index="1257096" value="1"/>
  <variable name="Y(6386,44)" index="1257888" value="1"/>
  <variable name="Y(6420,90)" index="1264632" value="1"/>
  <variable name="X(1,105,4624)" index="1270939" value="1"/>
  <variable name="X(2,1,5253)" index="1277996" value="1"/>
  <variable name="X(2,19,5646)" index="1284817" value="1"/>
  <variable name="X(2,49,4981)" index="1290580" value="1"/>
  <variable name="X(2,78,3274)" index="1295301" value="1"/>
  <variable name="X(2,79,4846)" index="1303301" value="1"/>
  <variable name="X(2,80,4924)" index="1309807" value="1"/>
  <variable name="X(2,81,5248)" index="1316559" value="1"/>
  <variable name="X(2,82,4772)" index="1322511" value="1"/>
  <variable name="X(2,106,4609)" index="1328776" value="1"/>
  <variable name="X(3,1,4624)" index="1335219" value="1"/>
  <variable name="X(3,19,3132)" index="1340155" value="1"/>
  <variable name="X(3,50,4904)" index="1348355" value="1"/>
  <variable name="X(3,77,4997)" index="1354876" value="1"/>
  <variable name="X(3,78,4609)" index="1360916" value="1"/>
  <variable name="X(3,79,50)" index="1362785" value="1"/>
  <variable name="X(3,80,265)" index="1369428" value="1"/>
  <variable name="X(3,81,4622)" index="1380213" value="1"/>
  <variable name="X(3,82,6217)" index="1388236" value="1"/>
  <variable name="X(3,107,4793)" index="1393240" value="1"/>
  <variable name="X(4,5,3630)" index="1398505" value="1"/>
  <variable name="X(4,6,280)" index="1401583" value="1"/>
  <variable name="X(4,7,2155)" index="1409886" value="1"/>
  <variable name="X(4,108,2666)" index="1416825" value="1"/>
  <variable name="X(5,109,3630)" index="1424217" value="1"/>
  <variable name="X(6,4,2666)" index="1429681" value="1"/>
  <variable name="X(6,18,2768)" index="1436211" value="1"/>
  <variable name="X(6,26,976)" index="1440847" value="1"/>
  <variable name="X(6,36,5833)" index="1452132" value="1"/>
  <variable name="X(6,38,2871)" index="1455598" value="1"/>
  <variable name="X(6,46,3996)" index="1463151" value="1"/>
  <variable name="X(6,48,2702)" index="1468285" value="1"/>
  <variable name="X(6,67,2394)" index="1474405" value="1"/>
  <variable name="X(6,68,2127)" index="1480566" value="1"/>
  <variable name="X(6,96,280)" index="1485147" value="1"/>
  <variable name="X(6,99,1397)" index="1492692" value="1"/>
  <variable name="X(6,110,1986)" index="1499709" value="1"/>
  <variable name="X(7,4,3630)" index="1507781" value="1"/>
  <variable name="X(7,61,5943)" index="1516522" value="1"/>
  <variable name="X(7,86,2648)" index="1519655" value="1"/>
  <variable name="X(7,97,2155)" index="1525590" value="1"/>
  <variable name="X(7,111,5148)" index="1535011" value="1"/>
  <variable name="X(8,9,323)" index="1536614" value="1"/>
  <variable name="X(8,112,5988)" index="1548707" value="1"/>
  <variable name="X(9,8,5988)" index="1555135" value="1"/>
  <variable name="X(9,60,323)" index="1555898" value="1"/>
  <variable name="X(9,61,429)" index="1562432" value="1"/>
  <variable name="X(9,113,2348)" index="1570779" value="1"/>
  <variable name="X(10,11,477)" index="1575336" value="1"/>
  <variable name="X(10,114,658)" index="1581945" value="1"/>
  <variable name="X(11,10,658)" index="1588373" value="1"/>
  <variable name="X(11,60,477)" index="1594620" value="1"/>
  <variable name="X(11,61,5988)" index="1606559" value="1"/>
  <variable name="X(11,65,429)" index="1607428" value="1"/>
  <variable name="X(11,115,5990)" index="1619417" value="1"/>
  <variable name="X(12,13,658)" index="1620513" value="1"/>
  <variable name="X(12,116,4200)" index="1630483" value="1"/>
  <variable name="X(13,12,4200)" index="1636911" value="1"/>
  <variable name="X(13,60,658)" index="1639797" value="1"/>
  <variable name="X(13,61,705)" index="1646272" value="1"/>
  <variable name="X(13,117,477)" index="1652472" value="1"/>
  <variable name="X(14,15,807)" index="1659230" value="1"/>
  <variable name="X(14,118,819)" index="1665670" value="1"/>
  <variable name="X(15,14,819)" index="1672098" value="1"/>
  <variable name="X(15,99,807)" index="1678514" value="1"/>
  <variable name="X(15,119,6158)" index="1690293" value="1"/>
  <variable name="X(16,17,918)" index="1691481" value="1"/>
  <variable name="X(16,120,2440)" index="1699431" value="1"/>
  <variable name="X(17,16,2440)" index="1705859" value="1"/>
  <variable name="X(17,23,3375)" index="1713222" value="1"/>
  <variable name="X(17,33,6250)" index="1722525" value="1"/>
  <variable name="X(17,39,5239)" index="1727942" value="1"/>
  <variable name="X(17,42,1173)" index="1730304" value="1"/>
  <variable name="X(17,57,5941)" index="1741500" value="1"/>
  <variable name="X(17,63,2212)" index="1744199" value="1"/>
  <variable name="X(17,66,918)" index="1749333" value="1"/>
  <variable name="X(17,87,5791)" index="1760634" value="1"/>
  <variable name="X(17,102,1980)" index="1763251" value="1"/>
  <variable name="X(17,121,3826)" index="1771525" value="1"/>
  <variable name="X(18,6,976)" index="1775103" value="1"/>
  <variable name="X(18,122,2768)" index="1783323" value="1"/>
  <variable name="X(19,3,1016)" index="1787999" value="1"/>
  <variable name="X(19,123,3132)" index="1796543" value="1"/>
  <variable name="X(20,21,1086)" index="1800925" value="1"/>
  <variable name="X(20,124,1534)" index="1807801" value="1"/>
  <variable name="X(21,20,1534)" index="1814229" value="1"/>
  <variable name="X(21,22,5341)" index="1824464" value="1"/>
  <variable name="X(21,25,1446)" index="1826997" value="1"/>
  <variable name="X(21,27,3302)" index="1835281" value="1"/>
  <variable name="X(21,28,3743)" index="1842150" value="1"/>
  <variable name="X(21,51,6386)" index="1851221" value="1"/>
  <variable name="X(21,54,5063)" index="1856326" value="1"/>
  <variable name="X(21,55,1123)" index="1858814" value="1"/>
  <variable name="X(21,62,3945)" index="1868064" value="1"/>
  <variable name="X(21,84,5522)" index="1876069" value="1"/>
  <variable name="X(21,88,5707)" index="1882682" value="1"/>
  <variable name="X(21,89,5316)" index="1888719" value="1"/>
  <variable name="X(21,90,5981)" index="1895812" value="1"/>
  <variable name="X(21,91,5618)" index="1901877" value="1"/>
  <variable name="X(21,93,3288)" index="1905975" value="1"/>
  <variable name="X(21,94,1086)" index="1910201" value="1"/>
  <variable name="X(22,21,1123)" index="1916666" value="1"/>
  <variable name="X(22,126,5341)" index="1927312" value="1"/>
  <variable name="X(23,17,1173)" index="1929572" value="1"/>
  <variable name="X(23,127,3375)" index="1938202" value="1"/>
  <variable name="X(24,25,1227)" index="1942482" value="1"/>
  <variable name="X(24,128,1446)" index="1949129" value="1"/>
  <variable name="X(25,21,5981)" index="1960092" value="1"/>
  <variable name="X(25,24,1446)" index="1961985" value="1"/>
  <variable name="X(25,50,2616)" index="1969583" value="1"/>
  <variable name="X(25,51,1227)" index="1974622" value="1"/>
  <variable name="X(25,70,4407)" index="1984230" value="1"/>
  <variable name="X(25,73,4166)" index="1990417" value="1"/>
  <variable name="X(25,74,4591)" index="1997270" value="1"/>
  <variable name="X(26,6,1397)" index="2000504" value="1"/>
  <variable name="X(26,130,976)" index="2006511" value="1"/>
  <variable name="X(27,21,1446)" index="2013409" value="1"/>
  <variable name="X(27,131,3302)" index="2021693" value="1"/>
  <variable name="X(28,21,1534)" index="2026353" value="1"/>
  <variable name="X(28,132,3743)" index="2034990" value="1"/>
  <variable name="X(29,30,4287)" index="2041962" value="1"/>
  <variable name="X(29,31,3327)" index="2047430" value="1"/>
  <variable name="X(29,32,1716)" index="2052247" value="1"/>
  <variable name="X(29,33,1801)" index="2058760" value="1"/>
  <variable name="X(29,34,1667)" index="2065054" value="1"/>
  <variable name="X(29,35,2368)" index="2072183" value="1"/>
  <variable name="X(30,29,1716)" index="2077959" value="1"/>
  <variable name="X(30,34,1718)" index="2084389" value="1"/>
  <variable name="X(30,37,4287)" index="2093386" value="1"/>
  <variable name="X(30,134,1227)" index="2096754" value="1"/>
  <variable name="X(31,135,1791)" index="2103746" value="1"/>
  <variable name="X(32,29,1801)" index="2110184" value="1"/>
  <variable name="X(32,34,1791)" index="2116602" value="1"/>
  <variable name="X(32,136,1716)" index="2122955" value="1"/>
  <variable name="X(33,17,5791)" index="2133458" value="1"/>
  <variable name="X(33,29,2368)" index="2136463" value="1"/>
  <variable name="X(33,39,5119)" index="2145642" value="1"/>
  <variable name="X(33,40,6250)" index="2153201" value="1"/>
  <variable name="X(33,41,6303)" index="2159682" value="1"/>
  <variable name="X(33,42,1801)" index="2161608" value="1"/>
  <variable name="X(33,43,4591)" index="2170826" value="1"/>
  <variable name="X(33,44,4220)" index="2176883" value="1"/>
  <variable name="X(33,45,2573)" index="2181664" value="1"/>
  <variable name="X(33,72,2659)" index="2188178" value="1"/>
  <variable name="X(33,74,2469)" index="2194416" value="1"/>
  <variable name="X(33,85,2323)" index="2200698" value="1"/>
  <variable name="X(33,137,2187)" index="2206990" value="1"/>
  <variable name="X(34,30,1227)" index="2212458" value="1"/>
  <variable name="X(34,31,1791)" index="2219450" value="1"/>
  <variable name="X(34,32,6377)" index="2230464" value="1"/>
  <variable name="X(34,35,1297)" index="2231812" value="1"/>
  <variable name="X(34,37,3554)" index="2240497" value="1"/>
  <variable name="X(34,51,1667)" index="2245038" value="1"/>
  <variable name="X(34,138,1718)" index="2251517" value="1"/>
  <variable name="X(35,29,3327)" index="2259554" value="1"/>
  <variable name="X(35,34,3554)" index="2266209" value="1"/>
  <variable name="X(35,57,1297)" index="2270380" value="1"/>
  <variable name="X(35,139,2368)" index="2277879" value="1"/>
  <variable name="X(36,6,1986)" index="2283925" value="1"/>
  <variable name="X(36,140,5833)" index="2294200" value="1"/>
  <variable name="X(37,141,3554)" index="2298349" value="1"/>
  <variable name="X(38,6,2127)" index="2303350" value="1"/>
  <variable name="X(38,142,2871)" index="2310522" value="1"/>
  <variable name="X(39,17,2212)" index="2316291" value="1"/>
  <variable name="X(39,33,2187)" index="2322694" value="1"/>
  <variable name="X(39,40,2373)" index="2329308" value="1"/>
  <variable name="X(39,41,4055)" index="2337418" value="1"/>
  <variable name="X(39,42,2195)" index="2341986" value="1"/>
  <variable name="X(39,43,2631)" index="2348850" value="1"/>
  <variable name="X(39,44,2287)" index="2354934" value="1"/>
  <variable name="X(39,45,2198)" index="2361273" value="1"/>
  <variable name="X(39,143,6381)" index="2371884" value="1"/>
  <variable name="X(40,33,2323)" index="2374254" value="1"/>
  <variable name="X(40,39,2287)" index="2380646" value="1"/>
  <variable name="X(40,42,2285)" index="2387072" value="1"/>
  <variable name="X(40,45,2272)" index="2393487" value="1"/>
  <variable name="X(40,144,6382)" index="2404025" value="1"/>
  <variable name="X(41,33,2368)" index="2406439" value="1"/>
  <variable name="X(41,39,2373)" index="2412872" value="1"/>
  <variable name="X(41,42,2374)" index="2419301" value="1"/>
  <variable name="X(41,45,2394)" index="2425749" value="1"/>
  <variable name="X(41,145,4055)" index="2433838" value="1"/>
  <variable name="X(42,17,2440)" index="2438651" value="1"/>
  <variable name="X(42,33,2469)" index="2445108" value="1"/>
  <variable name="X(42,39,2452)" index="2451519" value="1"/>
  <variable name="X(42,40,2453)" index="2457948" value="1"/>
  <variable name="X(42,43,2454)" index="2464377" value="1"/>
  <variable name="X(42,44,2455)" index="2470806" value="1"/>
  <variable name="X(42,45,2456)" index="2477235" value="1"/>
  <variable name="X(42,146,2195)" index="2483402" value="1"/>
  <variable name="X(43,33,2573)" index="2490208" value="1"/>
  <variable name="X(43,39,4055)" index="2498118" value="1"/>
  <variable name="X(43,42,4056)" index="2504547" value="1"/>
  <variable name="X(43,56,4069)" index="2510988" value="1"/>
  <variable name="X(43,69,2631)" index="2515978" value="1"/>
  <variable name="X(43,83,3508)" index="2523283" value="1"/>
  <variable name="X(43,147,2454)" index="2528657" value="1"/>
  <variable name="X(44,33,2659)" index="2535290" value="1"/>
  <variable name="X(44,39,2631)" index="2541690" value="1"/>
  <variable name="X(44,42,2610)" index="2548097" value="1"/>
  <variable name="X(44,45,2616)" index="2554531" value="1"/>
  <variable name="X(44,148,6386)" index="2564729" value="1"/>
  <variable name="X(45,33,5791)" index="2570562" value="1"/>
  <variable name="X(45,39,6381)" index="2577580" value="1"/>
  <variable name="X(45,40,6382)" index="2584009" value="1"/>
  <variable name="X(45,41,5175)" index="2589230" value="1"/>
  <variable name="X(45,42,4143)" index="2594626" value="1"/>
  <variable name="X(45,44,6386)" index="2603297" value="1"/>
  <variable name="X(45,51,2616)" index="2605955" value="1"/>
  <variable name="X(45,74,2394)" index="2612161" value="1"/>
  <variable name="X(45,149,2456)" index="2618651" value="1"/>
  <variable name="X(46,6,2702)" index="2625325" value="1"/>
  <variable name="X(46,150,3996)" index="2633047" value="1"/>
  <variable name="X(47,6,2768)" index="2638247" value="1"/>
  <variable name="X(48,6,2871)" index="2644778" value="1"/>
  <variable name="X(48,152,2702)" index="2651037" value="1"/>
  <variable name="X(49,2,5253)" index="2660016" value="1"/>
  <variable name="X(49,50,2990)" index="2664181" value="1"/>
  <variable name="X(49,51,3288)" index="2670907" value="1"/>
  <variable name="X(49,52,4981)" index="2679028" value="1"/>
  <variable name="X(49,153,4562)" index="2685037" value="1"/>
  <variable name="X(50,3,3132)" index="2690035" value="1"/>
  <variable name="X(50,25,4591)" index="2697922" value="1"/>
  <variable name="X(50,49,4562)" index="2704321" value="1"/>
  <variable name="X(50,52,4904)" index="2711091" value="1"/>
  <variable name="X(50,75,3271)" index="2715886" value="1"/>
  <variable name="X(50,154,2616)" index="2721659" value="1"/>
  <variable name="X(51,21,3288)" index="2728759" value="1"/>
  <variable name="X(51,25,2616)" index="2734515" value="1"/>
  <variable name="X(51,34,1227)" index="2739554" value="1"/>
  <variable name="X(51,45,6386)" index="2751141" value="1"/>
  <variable name="X(51,49,5253)" index="2756436" value="1"/>
  <variable name="X(51,70,5774)" index="2763385" value="1"/>
  <variable name="X(51,73,1667)" index="2765706" value="1"/>
  <variable name="X(51,95,4430)" index="2774897" value="1"/>
  <variable name="X(51,155,4151)" index="2781046" value="1"/>
  <variable name="X(52,49,3197)" index="2786520" value="1"/>
  <variable name="X(52,50,3132)" index="2792883" value="1"/>
  <variable name="X(52,156,4981)" index="2801160" value="1"/>
  <variable name="X(53,49,3288)" index="2805895" value="1"/>
  <variable name="X(53,50,3271)" index="2812306" value="1"/>
  <variable name="X(54,21,3302)" index="2818765" value="1"/>
  <variable name="X(54,158,5063)" index="2826954" value="1"/>
  <variable name="X(55,159,1123)" index="2829442" value="1"/>
  <variable name="X(56,43,3508)" index="2838255" value="1"/>
  <variable name="X(56,57,3554)" index="2844729" value="1"/>
  <variable name="X(56,58,4069)" index="2851672" value="1"/>
  <variable name="X(56,160,5941)" index="2859972" value="1"/>
  <variable name="X(57,17,1980)" index="2862439" value="1"/>
  <variable name="X(57,35,3554)" index="2870441" value="1"/>
  <variable name="X(57,56,5941)" index="2879256" value="1"/>
  <variable name="X(58,56,3508)" index="2883251" value="1"/>
  <variable name="X(58,162,4069)" index="2890240" value="1"/>
  <variable name="X(59,56,3554)" index="2896153" value="1"/>
  <variable name="X(60,9,2348)" index="2901375" value="1"/>
  <variable name="X(60,11,658)" index="2906113" value="1"/>
  <variable name="X(60,13,477)" index="2912360" value="1"/>
  <variable name="X(60,61,4307)" index="2922618" value="1"/>
  <variable name="X(60,71,2398)" index="2927137" value="1"/>
  <variable name="X(60,72,4220)" index="2935387" value="1"/>
  <variable name="X(60,164,5943)" index="2943538" value="1"/>
  <variable name="X(61,7,2648)" index="2946671" value="1"/>
  <variable name="X(61,9,5988)" index="2956439" value="1"/>
  <variable name="X(61,11,429)" index="2957308" value="1"/>
  <variable name="X(61,13,4200)" index="2967507" value="1"/>
  <variable name="X(61,60,5943)" index="2975678" value="1"/>
  <variable name="X(61,71,705)" index="2976868" value="1"/>
  <variable name="X(61,99,5981)" index="2988572" value="1"/>
  <variable name="X(61,165,4307)" index="2993326" value="1"/>
  <variable name="X(62,21,3743)" index="2999190" value="1"/>
  <variable name="X(62,166,3945)" index="3005820" value="1"/>
  <variable name="X(63,17,3826)" index="3012129" value="1"/>
  <variable name="X(63,167,2212)" index="3016943" value="1"/>
  <variable name="X(64,21,3945)" index="3025104" value="1"/>
  <variable name="X(65,169,429)" index="3028016" value="1"/>
  <variable name="X(66,170,918)" index="3034933" value="1"/>
  <variable name="X(67,6,3996)" index="3044439" value="1"/>
  <variable name="X(67,171,2394)" index="3049265" value="1"/>
  <variable name="X(68,172,2127)" index="3055426" value="1"/>
  <variable name="X(69,43,4056)" index="3063783" value="1"/>
  <variable name="X(69,173,2631)" index="3068786" value="1"/>
  <variable name="X(70,25,4166)" index="3076749" value="1"/>
  <variable name="X(70,51,4151)" index="3083162" value="1"/>
  <variable name="X(70,174,4407)" index="3089846" value="1"/>
  <variable name="X(71,60,4220)" index="3096087" value="1"/>
  <variable name="X(71,61,4200)" index="3102495" value="1"/>
  <variable name="X(71,175,705)" index="3105428" value="1"/>
  <variable name="X(72,33,4220)" index="3115371" value="1"/>
  <variable name="X(72,60,4307)" index="3121886" value="1"/>
  <variable name="X(72,99,4341)" index="3128348" value="1"/>
  <variable name="X(72,100,2659)" index="3133094" value="1"/>
  <variable name="X(72,101,6233)" index="3143096" value="1"/>
  <variable name="X(72,176,1397)" index="3144688" value="1"/>
  <variable name="X(73,25,4407)" index="3154126" value="1"/>
  <variable name="X(73,51,4430)" index="3160577" value="1"/>
  <variable name="X(73,177,4166)" index="3166741" value="1"/>
  <variable name="X(74,25,5981)" index="3174984" value="1"/>
  <variable name="X(74,33,4591)" index="3180022" value="1"/>
  <variable name="X(74,45,5175)" index="3187034" value="1"/>
  <variable name="X(74,99,2394)" index="3190681" value="1"/>
  <variable name="X(74,178,2469)" index="3197184" value="1"/>
  <variable name="X(75,50,4562)" index="3205705" value="1"/>
  <variable name="X(75,76,1745)" index="3209316" value="1"/>
  <variable name="X(75,179,3271)" index="3217270" value="1"/>
  <variable name="X(76,75,4562)" index="3224989" value="1"/>
  <variable name="X(76,180,1745)" index="3228600" value="1"/>
  <variable name="X(77,3,4622)" index="3237905" value="1"/>
  <variable name="X(77,181,4997)" index="3244708" value="1"/>
  <variable name="X(78,2,4609)" index="3250748" value="1"/>
  <variable name="X(78,3,4624)" index="3257191" value="1"/>
  <variable name="X(78,182,3274)" index="3262269" value="1"/>
  <variable name="X(79,2,4772)" index="3270195" value="1"/>
  <variable name="X(79,3,4747)" index="3276598" value="1"/>
  <variable name="X(79,183,4846)" index="3283125" value="1"/>
  <variable name="X(80,2,4846)" index="3289553" value="1"/>
  <variable name="X(80,3,4793)" index="3295928" value="1"/>
  <variable name="X(80,184,4924)" index="3302487" value="1"/>
  <variable name="X(81,2,4924)" index="3308915" value="1"/>
  <variable name="X(81,3,4904)" index="3315323" value="1"/>
  <variable name="X(81,185,4622)" index="3321469" value="1"/>
  <variable name="X(82,2,4981)" index="3328256" value="1"/>
  <variable name="X(82,3,4997)" index="3334700" value="1"/>
  <variable name="X(82,186,4772)" index="3340903" value="1"/>
  <variable name="X(83,187,3508)" index="3346067" value="1"/>
  <variable name="X(84,21,5063)" index="3354050" value="1"/>
  <variable name="X(84,188,5522)" index="3360937" value="1"/>
  <variable name="X(85,33,5119)" index="3366962" value="1"/>
  <variable name="X(85,189,2323)" index="3370594" value="1"/>
  <variable name="X(86,7,5148)" index="3379847" value="1"/>
  <variable name="X(86,190,2648)" index="3383775" value="1"/>
  <variable name="X(87,17,5239)" index="3392794" value="1"/>
  <variable name="X(87,191,5791)" index="3399774" value="1"/>
  <variable name="X(88,21,5316)" index="3405727" value="1"/>
  <variable name="X(88,192,5707)" index="3412546" value="1"/>
  <variable name="X(89,21,5341)" index="3418608" value="1"/>
  <variable name="X(89,193,5316)" index="3425011" value="1"/>
  <variable name="X(90,21,6386)" index="3432509" value="1"/>
  <variable name="X(90,104,5981)" index="3438532" value="1"/>
  <variable name="X(90,194,6420)" index="3445399" value="1"/>
  <variable name="X(91,21,5522)" index="3450929" value="1"/>
  <variable name="X(91,195,5618)" index="3457453" value="1"/>
  <variable name="X(92,21,5618)" index="3463881" value="1"/>
  <variable name="X(93,197,3288)" index="3467979" value="1"/>
  <variable name="X(94,21,5707)" index="3476826" value="1"/>
  <variable name="X(94,198,1086)" index="3478633" value="1"/>
  <variable name="X(95,51,5774)" index="3489749" value="1"/>
  <variable name="X(95,199,4430)" index="3494833" value="1"/>
  <variable name="X(96,6,5833)" index="3502664" value="1"/>
  <variable name="X(96,200,280)" index="3503539" value="1"/>
  <variable name="X(97,7,5943)" index="3515630" value="1"/>
  <variable name="X(97,201,2155)" index="3518270" value="1"/>
  <variable name="X(98,11,5990)" index="3528533" value="1"/>
  <variable name="X(99,6,2394)" index="3531365" value="1"/>
  <variable name="X(99,15,6158)" index="3541557" value="1"/>
  <variable name="X(99,61,2648)" index="3544475" value="1"/>
  <variable name="X(99,72,1397)" index="3549652" value="1"/>
  <variable name="X(99,74,5981)" index="3560664" value="1"/>
  <variable name="X(99,100,5800)" index="3566911" value="1"/>
  <variable name="X(99,101,807)" index="3568346" value="1"/>
  <variable name="X(99,203,4341)" index="3578308" value="1"/>
  <variable name="X(100,72,6233)" index="3586628" value="1"/>
  <variable name="X(100,99,6158)" index="3592981" value="1"/>
  <variable name="X(100,204,2659)" index="3595910" value="1"/>
  <variable name="X(101,205,6233)" index="3605912" value="1"/>
  <variable name="X(102,17,6250)" index="3612357" value="1"/>
  <variable name="X(102,206,1980)" index="3614515" value="1"/>
  <variable name="X(103,33,6303)" index="3625266" value="1"/>
  <variable name="X(104,90,6420)" index="3631811" value="1"/>
  <variable name="X(104,208,5981)" index="3637800" value="1"/>
 </variables>
</CPLEXSolution>
